HUN,8,6,869
5,37,2,41,0,8,4,76,1,32,3,51
1,29,3,50,5,77,4,62,0,67,2,89
3,21,4,45,0,92,5,20,1,91,2,85
5,61,1,50,0,25,4,64,3,59,2,49
5,26,1,77,4,2,0,60,2,68,3,39
4,40,3,65,5,94,0,84,1,95,2,84
4,50,5,36,0,61,2,6,3,63,1,17
5,82,3,60,1,78,0,44,2,69,4,27
